Test: fpga12_11_sat.cnf
Options: -no-inverting-opt -activity-look-freq=1
WARNING: for repeatability, setting FPU to use double precision
============================[ Problem Statistics ]=============================
|                                                                             |
|  Number of symmetries:           29                                         |
|  Number of invertingSyms:         0                                         |
|  Number of variables:           198                                         |
|  Number of clauses:             968                                         |
|  Parse time:                   0.00 s                                       |
|                                                                             |
============================[ Search Statistics ]==============================
| Conflicts |          ORIGINAL         |          LEARNT          | Progress |
|           |    Vars  Clauses Literals |    Limit  Clauses Lit/Cl |          |
===============================================================================
|       100 |     198      968     2640 |      354      233     49 |  0.003 % |
===============================================================================
restarts              : 2
conflicts             : 124            (15500 /sec)
symconflicts          : 41             (5125 /sec)
decisions             : 448            (0.00 % random) (56000 /sec)
propagations          : 8503           (1062875 /sec)
sympropagations       : 171            (21375 /sec)
conflict literals     : 5808           (2.42 % deleted)
literals     : 5808           (2.42 % deleted)

HEURISTIC USAGES
random                : 0           
activity w/ lookahead : 447         
activity no lookahead : 0           
original sp           : 0           
sym count             : 0           

Memory used           : 5.00 MB
CPU time              : 0.008 s

SATISFIABLE
